NAME          COPTPROB
OBJSENSE
  MIN
ROWS
 N  __OBJ___
 L  C0      
 L  C1      
 L  C2      
 L  C3      
 L  C4      
 L  C6      
 L  C7      
 L  C10     
 L  C11     
 L  C12     
 L  C14     
 L  C16     
 L  C17     
 L  C19     
 L  C20     
 L  C24     
 L  C29     
 L  C32     
 L  C35     
 L  C38     
 L  C46     
 L  C47     
 L  C48     
 L  C50     
 L  C52     
 L  C53     
 L  C55     
 L  C58     
 L  C61     
 L  C63     
 L  C64     
 L  C66     
 L  C67     
 L  C69     
 L  C82     
 L  C85     
 L  C87     
 L  C88     
 L  C89     
 L  C92     
 L  C93     
 L  C95     
 L  C98     
 L  C99     
 L  C104    
 L  C106    
 L  C107    
 L  C108    
 L  C109    
 L  C110    
 L  C111    
 L  C114    
 L  C115    
 L  C120    
 L  C122    
 L  C125    
 L  C127    
 L  C128    
 L  C129    
 L  C134    
 L  C137    
 L  C139    
 L  C141    
 L  C143    
 L  C144    
 L  C145    
 L  C148    
 L  C150    
 L  C151    
 L  C152    
 L  C153    
 L  C154    
 L  C156    
 L  C158    
 L  C159    
 L  C160    
 L  C161    
 L  C164    
 L  C165    
 L  C166    
 L  C167    
 L  C169    
 L  C170    
 L  C174    
 L  C175    
 L  C176    
 L  C178    
 L  C181    
 L  C183    
 L  C184    
 L  C186    
 L  C188    
 L  C189    
 L  C190    
 L  C191    
 L  C192    
 L  C193    
 L  C196    
 L  C197    
 L  C199    
 L  C201    
 L  C202    
 L  C203    
 L  C205    
 L  C209    
 L  C210    
 L  C211    
 L  C215    
 L  C217    
 L  C220    
 L  C225    
 L  C227    
 L  C228    
 L  C229    
 L  C232    
 L  C233    
 L  C234    
 L  C235    
 L  C237    
 L  C238    
 L  C239    
 L  C240    
 L  C244    
 L  C246    
 L  C248    
 L  C249    
 L  C250    
 L  C252    
 L  C253    
 L  C255    
 L  C256    
 L  C258    
 L  C263    
 L  C265    
 L  C268    
 L  C269    
 L  C272    
 L  C273    
 L  C274    
 L  C277    
 L  C278    
 L  C279    
 L  C284    
 L  C286    
 L  C287    
 L  C290    
 L  C291    
 L  C293    
 L  C297    
 L  C299    
 L  C302    
 L  C305    
 L  C308    
 L  C312    
 L  C313    
 L  C314    
 L  C315    
 L  C316    
 L  C318    
 L  C320    
 L  C321    
 L  C324    
 L  C326    
 L  C328    
 L  C329    
 L  C332    
 L  C337    
 L  C338    
 L  C339    
 L  C340    
 L  C343    
 L  C345    
 L  C346    
 L  C347    
 L  C349    
 L  C354    
 L  C357    
 L  C358    
 L  C359    
 L  C362    
 L  C363    
 L  C364    
 L  C367    
 L  C369    
 L  C372    
 L  C374    
 L  C375    
 L  C376    
 L  C377    
 L  C383    
 L  C384    
 L  C386    
 L  C389    
 L  C391    
 L  C393    
 L  C398    
 L  C399    
COLUMNS
    MARKER    'MARKER'                 'INTORG'
    x1        __OBJ___  876
    x1        C129      -1
    x1        C183      -1
    x1        C232      -1
    x1        C249      -1
    x1        C287      -1
    x2        __OBJ___  834
    x2        C88       -1
    x2        C114      -1
    x2        C225      -1
    x4        __OBJ___  401
    x4        C87       -1
    x4        C158      -1
    x4        C196      -1
    x4        C202      -1
    x4        C253      -1
    x4        C399      -1
    x5        __OBJ___  83
    x5        C4        -1
    x5        C53       -1
    x5        C167      -1
    x5        C318      -1
    x7        __OBJ___  478
    x7        C115      -1
    x7        C127      -1
    x7        C154      -1
    x7        C159      -1
    x7        C375      -1
    x8        __OBJ___  241
    x8        C150      -1
    x8        C233      -1
    x11       __OBJ___  366
    x11       C20       -1
    x11       C345      -1
    x12       __OBJ___  422
    x12       C143      -1
    x12       C161      -1
    x12       C244      -1
    x12       C272      -1
    x14       __OBJ___  394
    x14       C192      -1
    x14       C364      -1
    x15       __OBJ___  654
    x15       C55       -1
    x15       C63       -1
    x15       C376      -1
    x16       __OBJ___  533
    x16       C152      -1
    x16       C201      -1
    x17       __OBJ___  72
    x17       C278      -1
    x17       C293      -1
    x17       C358      -1
    x17       C386      -1
    x21       __OBJ___  340
    x21       C188      -1
    x21       C217      -1
    x21       C393      -1
    x22       __OBJ___  42
    x22       C19       -1
    x22       C110      -1
    x22       C343      -1
    x23       __OBJ___  435
    x23       C2        -1
    x23       C329      -1
    x23       C339      -1
    x23       C383      -1
    x34       __OBJ___  951
    x34       C24       -1
    x34       C203      -1
    x34       C346      -1
    x34       C398      -1
    x36       __OBJ___  718
    x36       C29       -1
    x36       C99       -1
    x36       C178      -1
    x37       __OBJ___  864
    x37       C47       -1
    x37       C286      -1
    x37       C308      -1
    x37       C359      -1
    x38       __OBJ___  11
    x38       C46       -1
    x38       C151      -1
    x38       C337      -1
    x39       __OBJ___  80
    x39       C1        -1
    x39       C52       -1
    x39       C107      -1
    x39       C313      -1
    x40       __OBJ___  319
    x40       C58       -1
    x40       C211      -1
    x40       C362      -1
    x45       __OBJ___  322
    x45       C3        -1
    x45       C35       -1
    x46       __OBJ___  657
    x46       C128      -1
    x46       C166      -1
    x47       __OBJ___  761
    x47       C14       -1
    x47       C125      -1
    x47       C220      -1
    x47       C324      -1
    x57       __OBJ___  372
    x57       C199      -1
    x57       C205      -1
    x57       C265      -1
    x58       __OBJ___  641
    x58       C122      -1
    x58       C144      -1
    x58       C156      -1
    x58       C269      -1
    x61       __OBJ___  257
    x61       C10       -1
    x61       C234      -1
    x61       C349      -1
    x65       __OBJ___  770
    x65       C85       -1
    x65       C111      -1
    x65       C246      -1
    x65       C340      -1
    x68       __OBJ___  813
    x68       C108      -1
    x68       C170      -1
    x68       C357      -1
    x72       __OBJ___  33
    x72       C153      -1
    x72       C193      -1
    x72       C252      -1
    x72       C326      -1
    x73       __OBJ___  37
    x73       C61       -1
    x73       C215      -1
    x73       C367      -1
    x75       __OBJ___  654
    x75       C0        -1
    x75       C148      -1
    x75       C176      -1
    x75       C186      -1
    x75       C237      -1
    x75       C305      -1
    x75       C389      -1
    x77       __OBJ___  665
    x77       C93       -1
    x77       C141      -1
    x77       C145      -1
    x77       C239      -1
    x78       __OBJ___  220
    x78       C7        -1
    x78       C50       -1
    x78       C169      -1
    x78       C181      -1
    x81       __OBJ___  438
    x81       C248      -1
    x81       C255      -1
    x81       C377      -1
    x83       __OBJ___  254
    x83       C120      -1
    x83       C320      -1
    x84       __OBJ___  400
    x84       C235      -1
    x84       C263      -1
    x84       C284      -1
    x84       C369      -1
    x87       __OBJ___  900
    x87       C11       -1
    x87       C184      -1
    x87       C258      -1
    x87       C290      -1
    x87       C297      -1
    x89       __OBJ___  938
    x89       C32       -1
    x89       C104      -1
    x89       C164      -1
    x89       C229      -1
    x90       __OBJ___  242
    x90       C38       -1
    x90       C160      -1
    x90       C210      -1
    x90       C321      -1
    x90       C332      -1
    x90       C374      -1
    x90       C384      -1
    x93       __OBJ___  231
    x93       C16       -1
    x93       C134      -1
    x93       C299      -1
    x94       __OBJ___  718
    x94       C82       -1
    x94       C174      -1
    x94       C209      -1
    x94       C279      -1
    x94       C315      -1
    x94       C363      -1
    x95       __OBJ___  610
    x95       C17       -1
    x95       C69       -1
    x95       C109      -1
    x95       C227      -1
    x95       C238      -1
    x96       __OBJ___  430
    x96       C48       -1
    x96       C106      -1
    x96       C391      -1
    x98       __OBJ___  875
    x98       C89       -1
    x98       C191      -1
    x98       C256      -1
    x98       C302      -1
    x102      __OBJ___  518
    x102      C227      -1
    x102      C240      -1
    x102      C273      -1
    x104      __OBJ___  73
    x104      C122      -1
    x104      C191      -1
    x105      __OBJ___  552
    x105      C66       -1
    x105      C338      -1
    x105      C372      -1
    x106      __OBJ___  587
    x106      C178      -1
    x106      C205      -1
    x106      C229      -1
    x106      C305      -1
    x108      __OBJ___  812
    x108      C17       -1
    x108      C89       -1
    x108      C196      -1
    x109      __OBJ___  297
    x109      C150      -1
    x109      C324      -1
    x109      C393      -1
    x110      __OBJ___  164
    x110      C165      -1
    x110      C228      -1
    x112      __OBJ___  454
    x112      C144      -1
    x112      C258      -1
    x116      __OBJ___  542
    x116      C6        -1
    x116      C64       -1
    x116      C143      -1
    x116      C273      -1
    x116      C274      -1
    x118      __OBJ___  531
    x118      C29       -1
    x118      C89       -1
    x119      __OBJ___  65
    x119      C6        -1
    x122      __OBJ___  312
    x122      C153      -1
    x122      C297      -1
    x124      __OBJ___  318
    x124      C329      -1
    x124      C349      -1
    x125      __OBJ___  998
    x125      C141      -1
    x125      C152      -1
    x125      C153      -1
    x125      C181      -1
    x131      __OBJ___  24
    x131      C153      -1
    x131      C235      -1
    x131      C252      -1
    x133      __OBJ___  587
    x133      C108      -1
    x133      C170      -1
    x133      C343      -1
    x134      __OBJ___  574
    x134      C35       -1
    x134      C61       -1
    x134      C316      -1
    x134      C340      -1
    x136      __OBJ___  822
    x136      C150      -1
    x136      C175      -1
    x136      C314      -1
    x136      C339      -1
    x136      C389      -1
    x137      __OBJ___  417
    x137      C3        -1
    x137      C139      -1
    x137      C165      -1
    x137      C238      -1
    x138      __OBJ___  617
    x138      C35       -1
    x138      C233      -1
    x138      C349      -1
    x139      __OBJ___  26
    x139      C48       -1
    x139      C139      -1
    x141      __OBJ___  78
    x141      C2        -1
    x141      C32       -1
    x141      C52       -1
    x141      C299      -1
    x141      C332      -1
    x144      __OBJ___  984
    x144      C6        -1
    x144      C104      -1
    x144      C249      -1
    x144      C316      -1
    x144      C375      -1
    x146      __OBJ___  664
    x146      C58       -1
    x146      C125      -1
    x146      C127      -1
    x153      __OBJ___  218
    x153      C6        -1
    x153      C217      -1
    x154      __OBJ___  255
    x154      C178      -1
    x154      C399      -1
    x155      __OBJ___  640
    x155      C63       -1
    x155      C89       -1
    x159      __OBJ___  55
    x159      C107      -1
    x159      C148      -1
    x160      __OBJ___  500
    x160      C7        -1
    x160      C106      -1
    x160      C293      -1
    x162      __OBJ___  644
    x162      C35       -1
    x162      C164      -1
    x168      __OBJ___  206
    x168      C61       -1
    x168      C161      -1
    x168      C375      -1
    x169      __OBJ___  222
    x169      C69       -1
    x169      C106      -1
    x169      C151      -1
    x169      C210      -1
    x176      __OBJ___  320
    x176      C150      -1
    x176      C272      -1
    x176      C299      -1
    x176      C329      -1
    x180      __OBJ___  156
    x180      C104      -1
    x180      C196      -1
    x180      C209      -1
    x180      C328      -1
    x180      C367      -1
    x182      __OBJ___  176
    x182      C67       -1
    x182      C189      -1
    x182      C377      -1
    x183      __OBJ___  145
    x183      C154      -1
    x183      C372      -1
    x185      __OBJ___  279
    x185      C196      -1
    x185      C321      -1
    x185      C364      -1
    x190      __OBJ___  766
    x190      C0        -1
    x190      C364      -1
    x193      __OBJ___  517
    x193      C152      -1
    x193      C170      -1
    x193      C318      -1
    x193      C339      -1
    x196      __OBJ___  73
    x196      C98       -1
    x196      C115      -1
    x196      C363      -1
    x197      __OBJ___  147
    x197      C99       -1
    x197      C160      -1
    x197      C308      -1
    x197      C369      -1
    x199      __OBJ___  379
    x199      C20       -1
    x199      C349      -1
    x200      __OBJ___  556
    x200      C148      -1
    x200      C205      -1
    x200      C277      -1
    x200      C287      -1
    x201      __OBJ___  376
    x201      C244      -1
    x201      C291      -1
    x202      __OBJ___  665
    x202      C4        -1
    x202      C69       -1
    x202      C93       -1
    x202      C104      -1
    x202      C229      -1
    x207      __OBJ___  212
    x207      C50       -1
    x207      C61       -1
    x207      C246      -1
    x207      C398      -1
    x209      __OBJ___  56
    x209      C38       -1
    x209      C272      -1
    x216      __OBJ___  786
    x216      C92       -1
    x216      C143      -1
    x216      C156      -1
    x216      C192      -1
    x218      __OBJ___  168
    x218      C197      -1
    x218      C202      -1
    x218      C203      -1
    x218      C284      -1
    x219      __OBJ___  23
    x219      C32       -1
    x219      C95       -1
    x219      C234      -1
    x220      __OBJ___  147
    x220      C196      -1
    x220      C203      -1
    x220      C272      -1
    x221      __OBJ___  764
    x221      C11       -1
    x221      C16       -1
    x221      C278      -1
    x221      C320      -1
    x221      C375      -1
    x224      __OBJ___  771
    x224      C20       -1
    x224      C55       -1
    x224      C398      -1
    x225      __OBJ___  290
    x225      C85       -1
    x225      C110      -1
    x225      C324      -1
    x225      C349      -1
    x225      C383      -1
    x227      __OBJ___  238
    x227      C87       -1
    x227      C273      -1
    x233      __OBJ___  201
    x233      C129      -1
    x233      C253      -1
    x233      C398      -1
    x233      C399      -1
    x234      __OBJ___  25
    x234      C175      -1
    x236      __OBJ___  293
    x236      C248      -1
    x236      C273      -1
    x236      C354      -1
    x238      __OBJ___  800
    x238      C38       -1
    x238      C166      -1
    x238      C199      -1
    x239      __OBJ___  551
    x239      C170      -1
    x239      C268      -1
    x239      C384      -1
    x242      __OBJ___  262
    x242      C1        -1
    x242      C53       -1
    x242      C184      -1
    x242      C272      -1
    x243      __OBJ___  355
    x243      C263      -1
    x243      C312      -1
    x243      C318      -1
    x244      __OBJ___  27
    x244      C318      -1
    x244      C369      -1
    x248      __OBJ___  354
    x248      C316      -1
    x252      __OBJ___  31
    x252      C161      -1
    x252      C201      -1
    x252      C228      -1
    x254      __OBJ___  202
    x254      C233      -1
    x254      C269      -1
    x254      C313      -1
    x255      __OBJ___  763
    x255      C122      -1
    x255      C125      -1
    x255      C215      -1
    x255      C340      -1
    x258      __OBJ___  47
    x258      C120      -1
    x258      C161      -1
    x258      C302      -1
    x259      __OBJ___  186
    x259      C181      -1
    x259      C225      -1
    x260      __OBJ___  724
    x260      C237      -1
    x260      C269      -1
    x261      __OBJ___  102
    x261      C189      -1
    x261      C225      -1
    x261      C312      -1
    x262      __OBJ___  423
    x262      C64       -1
    x262      C144      -1
    x263      __OBJ___  883
    x263      C16       -1
    x263      C24       -1
    x263      C227      -1
    x265      __OBJ___  311
    x265      C64       -1
    x265      C129      -1
    x266      __OBJ___  1
    x266      C67       -1
    x266      C188      -1
    x266      C315      -1
    x268      __OBJ___  386
    x268      C92       -1
    x268      C250      -1
    x269      __OBJ___  854
    x269      C225      -1
    x269      C244      -1
    x269      C255      -1
    x270      __OBJ___  126
    x270      C202      -1
    x270      C205      -1
    x270      C362      -1
    x271      __OBJ___  130
    x271      C268      -1
    x271      C305      -1
    x273      __OBJ___  258
    x273      C32       -1
    x273      C175      -1
    x273      C391      -1
    x274      __OBJ___  872
    x274      C50       -1
    x274      C53       -1
    x274      C141      -1
    x274      C293      -1
    x275      __OBJ___  794
    x275      C93       -1
    x275      C255      -1
    x275      C273      -1
    x276      __OBJ___  740
    x276      C11       -1
    x276      C99       -1
    x276      C233      -1
    x277      __OBJ___  878
    x277      C14       -1
    x277      C20       -1
    x277      C250      -1
    x280      __OBJ___  370
    x280      C299      -1
    x280      C354      -1
    x283      __OBJ___  394
    x283      C7        -1
    x283      C178      -1
    x286      __OBJ___  231
    x286      C20       -1
    x286      C48       -1
    x286      C127      -1
    x286      C240      -1
    x287      __OBJ___  288
    x287      C343      -1
    x287      C347      -1
    x287      C383      -1
    x289      __OBJ___  627
    x289      C108      -1
    x289      C279      -1
    x290      __OBJ___  424
    x290      C211      -1
    x290      C250      -1
    x290      C277      -1
    x293      __OBJ___  532
    x293      C12       -1
    x293      C87       -1
    x293      C137      -1
    x293      C316      -1
    x295      __OBJ___  89
    x295      C46       -1
    x295      C87       -1
    x296      __OBJ___  829
    x296      C11       -1
    x296      C328      -1
    x298      __OBJ___  820
    x298      C14       -1
    x298      C312      -1
    x300      __OBJ___  49
    x300      C95       -1
    x300      C99       -1
    x300      C252      -1
    x301      __OBJ___  557
    x301      C160      -1
    x301      C174      -1
    x301      C250      -1
    x301      C349      -1
    x302      __OBJ___  32
    x302      C139      -1
    x302      C159      -1
    x302      C291      -1
    x303      __OBJ___  109
    x303      C99       -1
    x303      C111      -1
    x303      C190      -1
    x303      C193      -1
    x304      __OBJ___  427
    x304      C166      -1
    x304      C201      -1
    x304      C256      -1
    x304      C315      -1
    x305      __OBJ___  672
    x305      C88       -1
    x305      C164      -1
    x305      C190      -1
    x305      C398      -1
    x306      __OBJ___  371
    x306      C176      -1
    x306      C314      -1
    x309      __OBJ___  888
    x309      C47       -1
    x309      C393      -1
    x313      __OBJ___  585
    x313      C63       -1
    x314      __OBJ___  789
    x314      C66       -1
    x314      C174      -1
    x314      C258      -1
    x315      __OBJ___  256
    x315      C1        -1
    x315      C186      -1
    x315      C375      -1
    x317      __OBJ___  933
    x317      C61       -1
    x317      C109      -1
    x317      C256      -1
    x317      C265      -1
    x318      __OBJ___  629
    x318      C183      -1
    x318      C253      -1
    x321      __OBJ___  299
    x321      C265      -1
    x323      __OBJ___  402
    x323      C38       -1
    x323      C46       -1
    x323      C167      -1
    x323      C170      -1
    x323      C188      -1
    x323      C269      -1
    x325      __OBJ___  179
    x325      C389      -1
    x326      __OBJ___  97
    x326      C19       -1
    x326      C158      -1
    x326      C201      -1
    x329      __OBJ___  71
    x329      C220      -1
    x329      C376      -1
    x330      __OBJ___  2
    x330      C143      -1
    x330      C347      -1
    x333      __OBJ___  220
    x333      C38       -1
    x333      C154      -1
    x333      C209      -1
    x333      C286      -1
    x337      __OBJ___  448
    x337      C253      -1
    x337      C274      -1
    x342      __OBJ___  11
    x342      C160      -1
    x342      C358      -1
    x344      __OBJ___  68
    x344      C115      -1
    x344      C150      -1
    x344      C326      -1
    x344      C357      -1
    x345      __OBJ___  753
    x345      C29       -1
    x345      C89       -1
    x345      C286      -1
    x345      C320      -1
    x346      __OBJ___  499
    x346      C38       -1
    x346      C273      -1
    x346      C314      -1
    x346      C376      -1
    x352      __OBJ___  97
    x352      C248      -1
    x352      C290      -1
    x353      __OBJ___  31
    x353      C58       -1
    x353      C374      -1
    x356      __OBJ___  749
    x356      C98       -1
    x356      C128      -1
    x356      C256      -1
    x356      C312      -1
    x358      __OBJ___  172
    x358      C12       -1
    x358      C287      -1
    x359      __OBJ___  240
    x359      C6        -1
    x359      C114      -1
    x359      C137      -1
    x359      C239      -1
    x359      C345      -1
    x361      __OBJ___  845
    x361      C104      -1
    x361      C164      -1
    x361      C274      -1
    x361      C337      -1
    x363      __OBJ___  16
    x363      C16       -1
    x363      C232      -1
    x366      __OBJ___  248
    x366      C106      -1
    x366      C338      -1
    x366      C389      -1
    x367      __OBJ___  444
    x367      C29       -1
    x367      C134      -1
    x367      C170      -1
    x367      C189      -1
    x367      C308      -1
    x368      __OBJ___  189
    x368      C104      -1
    x368      C192      -1
    x368      C278      -1
    x368      C349      -1
    x369      __OBJ___  21
    x369      C145      -1
    x369      C197      -1
    x369      C240      -1
    x372      __OBJ___  394
    x372      C150      -1
    x372      C229      -1
    x373      __OBJ___  328
    x373      C66       -1
    x373      C238      -1
    x373      C346      -1
    x374      __OBJ___  177
    x374      C139      -1
    x374      C165      -1
    x374      C201      -1
    x376      __OBJ___  741
    x376      C277      -1
    x376      C302      -1
    x376      C316      -1
    x379      __OBJ___  242
    x379      C202      -1
    x379      C268      -1
    x379      C386      -1
    x380      __OBJ___  172
    x380      C66       -1
    x380      C69       -1
    x381      __OBJ___  964
    x381      C82       -1
    x381      C85       -1
    x381      C375      -1
    x382      __OBJ___  321
    x382      C279      -1
    x382      C291      -1
    x383      __OBJ___  480
    x383      C64       -1
    x383      C196      -1
    x383      C318      -1
    x383      C375      -1
    x384      __OBJ___  380
    x384      C10       -1
    x384      C154      -1
    x385      __OBJ___  753
    x385      C104      -1
    x385      C154      -1
    x385      C328      -1
    x385      C359      -1
    x387      __OBJ___  109
    x387      C235      -1
    x387      C384      -1
    x389      __OBJ___  585
    x389      C265      -1
    x389      C286      -1
    x389      C359      -1
    x394      __OBJ___  231
    x394      C238      -1
    x397      __OBJ___  534
    x397      C156      -1
    x397      C272      -1
    x399      __OBJ___  98
    x399      C169      -1
    x399      C384      -1
    MARKER    'MARKER'                 'INTEND'
RHS
    RHS       __OBJ___  -16420
    RHS       C0        -1
    RHS       C1        -1
    RHS       C2        -1
    RHS       C3        -1
    RHS       C4        -1
    RHS       C6        -1
    RHS       C7        -1
    RHS       C10       -1
    RHS       C11       -1
    RHS       C12       -1
    RHS       C14       -1
    RHS       C16       -1
    RHS       C17       -1
    RHS       C19       -1
    RHS       C20       -1
    RHS       C24       -1
    RHS       C29       -1
    RHS       C32       -1
    RHS       C35       -1
    RHS       C38       -1
    RHS       C46       -1
    RHS       C47       -1
    RHS       C48       -1
    RHS       C50       -1
    RHS       C52       -1
    RHS       C53       -1
    RHS       C55       -1
    RHS       C58       -1
    RHS       C61       -1
    RHS       C63       -1
    RHS       C64       -1
    RHS       C66       -1
    RHS       C67       -1
    RHS       C69       -1
    RHS       C82       -1
    RHS       C85       -1
    RHS       C87       -1
    RHS       C88       -1
    RHS       C89       -1
    RHS       C92       -1
    RHS       C93       -1
    RHS       C95       -1
    RHS       C98       -1
    RHS       C99       -1
    RHS       C104      -1
    RHS       C106      -1
    RHS       C107      -1
    RHS       C108      -1
    RHS       C109      -1
    RHS       C110      -1
    RHS       C111      -1
    RHS       C114      -1
    RHS       C115      -1
    RHS       C120      -1
    RHS       C122      -1
    RHS       C125      -1
    RHS       C127      -1
    RHS       C128      -1
    RHS       C129      -1
    RHS       C134      -1
    RHS       C137      -1
    RHS       C139      -1
    RHS       C141      -1
    RHS       C143      -1
    RHS       C144      -1
    RHS       C145      -1
    RHS       C148      -1
    RHS       C150      -1
    RHS       C151      -1
    RHS       C152      -1
    RHS       C153      -1
    RHS       C154      -1
    RHS       C156      -1
    RHS       C158      -1
    RHS       C159      -1
    RHS       C160      -1
    RHS       C161      -1
    RHS       C164      -1
    RHS       C165      -1
    RHS       C166      -1
    RHS       C167      -1
    RHS       C169      -1
    RHS       C170      -1
    RHS       C174      -1
    RHS       C175      -1
    RHS       C176      -1
    RHS       C178      -1
    RHS       C181      -1
    RHS       C183      -1
    RHS       C184      -1
    RHS       C186      -1
    RHS       C188      -1
    RHS       C189      -1
    RHS       C190      -1
    RHS       C191      -1
    RHS       C192      -1
    RHS       C193      -1
    RHS       C196      -1
    RHS       C197      -1
    RHS       C199      -1
    RHS       C201      -1
    RHS       C202      -1
    RHS       C203      -1
    RHS       C205      -1
    RHS       C209      -1
    RHS       C210      -1
    RHS       C211      -1
    RHS       C215      -1
    RHS       C217      -1
    RHS       C220      -1
    RHS       C225      -1
    RHS       C227      -1
    RHS       C228      -1
    RHS       C229      -1
    RHS       C232      -1
    RHS       C233      -1
    RHS       C234      -1
    RHS       C235      -1
    RHS       C237      -1
    RHS       C238      -1
    RHS       C239      -1
    RHS       C240      -1
    RHS       C244      -1
    RHS       C246      -1
    RHS       C248      -1
    RHS       C249      -1
    RHS       C250      -1
    RHS       C252      -1
    RHS       C253      -1
    RHS       C255      -1
    RHS       C256      -1
    RHS       C258      -1
    RHS       C263      -1
    RHS       C265      -1
    RHS       C268      -1
    RHS       C269      -1
    RHS       C272      -1
    RHS       C273      -1
    RHS       C274      -1
    RHS       C277      -1
    RHS       C278      -1
    RHS       C279      -1
    RHS       C284      -1
    RHS       C286      -1
    RHS       C287      -1
    RHS       C290      -1
    RHS       C291      -1
    RHS       C293      -1
    RHS       C297      -1
    RHS       C299      -1
    RHS       C302      -1
    RHS       C305      -1
    RHS       C308      -1
    RHS       C312      -1
    RHS       C313      -1
    RHS       C314      -1
    RHS       C315      -1
    RHS       C316      -1
    RHS       C318      -1
    RHS       C320      -1
    RHS       C321      -1
    RHS       C324      -1
    RHS       C326      -1
    RHS       C328      -1
    RHS       C329      -1
    RHS       C332      -1
    RHS       C337      -1
    RHS       C338      -1
    RHS       C339      -1
    RHS       C340      -1
    RHS       C343      -1
    RHS       C345      -1
    RHS       C346      -1
    RHS       C347      -1
    RHS       C349      -1
    RHS       C354      -1
    RHS       C357      -1
    RHS       C358      -1
    RHS       C359      -1
    RHS       C362      -1
    RHS       C363      -1
    RHS       C364      -1
    RHS       C367      -1
    RHS       C369      -1
    RHS       C372      -1
    RHS       C374      -1
    RHS       C375      -1
    RHS       C376      -1
    RHS       C377      -1
    RHS       C383      -1
    RHS       C384      -1
    RHS       C386      -1
    RHS       C389      -1
    RHS       C391      -1
    RHS       C393      -1
    RHS       C398      -1
    RHS       C399      -1
BOUNDS
 UP BOUND     x1        1
 UP BOUND     x2        1
 UP BOUND     x4        1
 UP BOUND     x5        1
 UP BOUND     x7        1
 UP BOUND     x8        1
 UP BOUND     x11       1
 UP BOUND     x12       1
 UP BOUND     x14       1
 UP BOUND     x15       1
 UP BOUND     x16       1
 UP BOUND     x17       1
 UP BOUND     x21       1
 UP BOUND     x22       1
 UP BOUND     x23       1
 UP BOUND     x34       1
 UP BOUND     x36       1
 UP BOUND     x37       1
 UP BOUND     x38       1
 UP BOUND     x39       1
 UP BOUND     x40       1
 UP BOUND     x45       1
 UP BOUND     x46       1
 UP BOUND     x47       1
 UP BOUND     x57       1
 UP BOUND     x58       1
 UP BOUND     x61       1
 UP BOUND     x65       1
 UP BOUND     x68       1
 UP BOUND     x72       1
 UP BOUND     x73       1
 UP BOUND     x75       1
 UP BOUND     x77       1
 UP BOUND     x78       1
 UP BOUND     x81       1
 UP BOUND     x83       1
 UP BOUND     x84       1
 UP BOUND     x87       1
 UP BOUND     x89       1
 UP BOUND     x90       1
 UP BOUND     x93       1
 UP BOUND     x94       1
 UP BOUND     x95       1
 UP BOUND     x96       1
 UP BOUND     x98       1
 UP BOUND     x102      1
 UP BOUND     x104      1
 UP BOUND     x105      1
 UP BOUND     x106      1
 UP BOUND     x108      1
 UP BOUND     x109      1
 UP BOUND     x110      1
 UP BOUND     x112      1
 UP BOUND     x116      1
 UP BOUND     x118      1
 UP BOUND     x119      1
 UP BOUND     x122      1
 UP BOUND     x124      1
 UP BOUND     x125      1
 UP BOUND     x131      1
 UP BOUND     x133      1
 UP BOUND     x134      1
 UP BOUND     x136      1
 UP BOUND     x137      1
 UP BOUND     x138      1
 UP BOUND     x139      1
 UP BOUND     x141      1
 UP BOUND     x144      1
 UP BOUND     x146      1
 UP BOUND     x153      1
 UP BOUND     x154      1
 UP BOUND     x155      1
 UP BOUND     x159      1
 UP BOUND     x160      1
 UP BOUND     x162      1
 UP BOUND     x168      1
 UP BOUND     x169      1
 UP BOUND     x176      1
 UP BOUND     x180      1
 UP BOUND     x182      1
 UP BOUND     x183      1
 UP BOUND     x185      1
 UP BOUND     x190      1
 UP BOUND     x193      1
 UP BOUND     x196      1
 UP BOUND     x197      1
 UP BOUND     x199      1
 UP BOUND     x200      1
 UP BOUND     x201      1
 UP BOUND     x202      1
 UP BOUND     x207      1
 UP BOUND     x209      1
 UP BOUND     x216      1
 UP BOUND     x218      1
 UP BOUND     x219      1
 UP BOUND     x220      1
 UP BOUND     x221      1
 UP BOUND     x224      1
 UP BOUND     x225      1
 UP BOUND     x227      1
 UP BOUND     x233      1
 UP BOUND     x234      1
 UP BOUND     x236      1
 UP BOUND     x238      1
 UP BOUND     x239      1
 UP BOUND     x242      1
 UP BOUND     x243      1
 UP BOUND     x244      1
 UP BOUND     x248      1
 UP BOUND     x252      1
 UP BOUND     x254      1
 UP BOUND     x255      1
 UP BOUND     x258      1
 UP BOUND     x259      1
 UP BOUND     x260      1
 UP BOUND     x261      1
 UP BOUND     x262      1
 UP BOUND     x263      1
 UP BOUND     x265      1
 UP BOUND     x266      1
 UP BOUND     x268      1
 UP BOUND     x269      1
 UP BOUND     x270      1
 UP BOUND     x271      1
 UP BOUND     x273      1
 UP BOUND     x274      1
 UP BOUND     x275      1
 UP BOUND     x276      1
 UP BOUND     x277      1
 UP BOUND     x280      1
 UP BOUND     x283      1
 UP BOUND     x286      1
 UP BOUND     x287      1
 UP BOUND     x289      1
 UP BOUND     x290      1
 UP BOUND     x293      1
 UP BOUND     x295      1
 UP BOUND     x296      1
 UP BOUND     x298      1
 UP BOUND     x300      1
 UP BOUND     x301      1
 UP BOUND     x302      1
 UP BOUND     x303      1
 UP BOUND     x304      1
 UP BOUND     x305      1
 UP BOUND     x306      1
 UP BOUND     x309      1
 UP BOUND     x313      1
 UP BOUND     x314      1
 UP BOUND     x315      1
 UP BOUND     x317      1
 UP BOUND     x318      1
 UP BOUND     x321      1
 UP BOUND     x323      1
 UP BOUND     x325      1
 UP BOUND     x326      1
 UP BOUND     x329      1
 UP BOUND     x330      1
 UP BOUND     x333      1
 UP BOUND     x337      1
 UP BOUND     x342      1
 UP BOUND     x344      1
 UP BOUND     x345      1
 UP BOUND     x346      1
 UP BOUND     x352      1
 UP BOUND     x353      1
 UP BOUND     x356      1
 UP BOUND     x358      1
 UP BOUND     x359      1
 UP BOUND     x361      1
 UP BOUND     x363      1
 UP BOUND     x366      1
 UP BOUND     x367      1
 UP BOUND     x368      1
 UP BOUND     x369      1
 UP BOUND     x372      1
 UP BOUND     x373      1
 UP BOUND     x374      1
 UP BOUND     x376      1
 UP BOUND     x379      1
 UP BOUND     x380      1
 UP BOUND     x381      1
 UP BOUND     x382      1
 UP BOUND     x383      1
 UP BOUND     x384      1
 UP BOUND     x385      1
 UP BOUND     x387      1
 UP BOUND     x389      1
 UP BOUND     x394      1
 UP BOUND     x397      1
 UP BOUND     x399      1
ENDATA
